nK = 1147;
nT = 6;
nI = 14;
L = 29;
TT = 263;
np = 1;
nc = 3;
b = [33, 27, 31, 51, 60, 49, 51, 49, 55, 23, 50, 44, 66, 60];
d = [114, 116, 82, 134, 128, 84, 110, 121, 99, 133, 84, 75, 115, 133];
m = [1.4, 1, 1, 2.4, 2.2, 2.5, 2.3, 2.5, 1.5, 1.4, 2.5, 2.1, 2.2, 1.1];
pt = [0.22, 0.29, 0.23, 0.32, 0.25, 0.29];
st = [10.56, 14.21, 13.8, 18.56, 10, 11.89];
arc = {<1, 0, 1, 1, 0, 0, 0, [1, 1, 1, 1, 1, 1]>, <2, 1, 2, 1, 0, 0, 0, [1, 1, 1, 1, 1, 1]>, <3, 2, 3, 1, 0, 0, 0, [1, 1, 1, 1, 1, 1]>, <4, 3, 4, 1, 0, 0, 0, [1, 1, 1, 1, 1, 1]>, <5, 4, 5, 1, 0, 0, 0, [1, 1, 1, 1, 1, 1]>, <6, 5, 6, 1, 0, 0, 0, [1, 1, 1, 1, 1, 1]>, <7, 6, 7, 1, 0, 0, 0, [1, 1, 1, 1, 1, 1]>, <8, 7, 8, 1, 0, 0, 0, [1, 1, 1, 1, 1, 1]>, <9, 8, 9, 1, 0, 0, 0, [1, 1, 1, 1, 1, 1]>, <10, 9, 10, 1, 0, 0, 0, [1, 1, 1, 1, 1, 1]>, <11, 10, 11, 1, 0, 0, 0, [1, 1, 1, 1, 1, 1]>, <12, 11, 12, 1, 0, 0, 0, [1, 1, 1, 1, 1, 1]>, <13, 12, 13, 1, 0, 0, 0, [1, 1, 1, 1, 1, 1]>, <14, 13, 14, 1, 0, 0, 0, [1, 1, 1, 1, 1, 1]>, <15, 14, 15, 1, 0, 0, 0, [1, 1, 1, 1, 1, 1]>, <16, 15, 16, 1, 0, 0, 0, [1, 1, 1, 1, 1, 1]>, <17, 16, 17, 1, 0, 0, 0, [1, 1, 1, 1, 1, 1]>, <18, 17, 18, 1, 0, 0, 0, [1, 1, 1, 1, 1, 1]>, <19, 18, 19, 1, 0, 0, 0, [1, 1, 1, 1, 1, 1]>, <20, 19, 20, 1, 0, 0, 0, [1, 1, 1, 1, 1, 1]>, <21, 20, 21, 1, 0, 0, 0, [1, 1, 1, 1, 1, 1]>, <22, 21, 22, 1, 0, 0, 0, [1, 1, 1, 1, 1, 1]>, <23, 22, 23, 1, 0, 0, 0, [1, 1, 1, 1, 1, 1]>, <24, 23, 24, 1, 0, 0, 0, [1, 1, 1, 1, 1, 1]>, <25, 24, 25, 1, 0, 0, 0, [1, 1, 1, 1, 1, 1]>, <26, 25, 26, 1, 0, 0, 0, [1, 1, 1, 1, 1, 1]>, <27, 26, 27, 1, 0, 0, 0, [1, 1, 1, 1, 1, 1]>, <28, 27, 28, 1, 0, 0, 0, [1, 1, 1, 1, 1, 1]>, <29, 28, 29, 1, 0, 0, 0, [1, 1, 1, 1, 1, 1]>, <30, 3, 12, 9, 1, 0, 1, [0, 0, 1, 1, 1, 1]>, <31, 4, 13, 9, 1, 0, 1, [0, 0, 1, 1, 1, 1]>, <32, 5, 14, 9, 1, 0, 1, [0, 0, 1, 1, 1, 1]>, <33, 11, 20, 9, 1, 0, 1, [0, 0, 1, 1, 1, 1]>, <34, 12, 21, 9, 1, 0, 1, [0, 0, 1, 1, 1, 1]>, <35, 15, 24, 9, 1, 0, 1, [0, 0, 1, 1, 1, 1]>, <36, 16, 25, 9, 1, 0, 1, [0, 0, 1, 1, 1, 1]>, <37, 17, 26, 9, 1, 0, 1, [0, 0, 1, 1, 1, 1]>, <38, 18, 27, 9, 1, 0, 1, [0, 0, 1, 1, 1, 1]>, <39, 19, 28, 9, 1, 0, 1, [0, 0, 1, 1, 1, 1]>, <40, 20, 29, 9, 1, 0, 1, [0, 0, 1, 1, 1, 1]>, <41, 4, 11, 7, 2, 0, 0, [1, 1, 1, 0, 0, 1]>, <42, 5, 12, 7, 2, 0, 0, [1, 1, 1, 0, 0, 1]>, <43, 11, 18, 7, 2, 0, 0, [1, 1, 1, 0, 0, 1]>, <44, 12, 19, 7, 2, 0, 0, [1, 1, 1, 0, 0, 1]>, <45, 17, 24, 7, 2, 0, 0, [1, 1, 1, 0, 0, 1]>, <46, 18, 25, 7, 2, 0, 0, [1, 1, 1, 0, 0, 1]>, <47, 19, 26, 7, 2, 0, 0, [1, 1, 1, 0, 0, 1]>, <48, 20, 27, 7, 2, 0, 0, [1, 1, 1, 0, 0, 1]>, <49, 3, 12, 9, 3, 0, 0, [1, 1, 1, 1, 0, 0]>, <50, 4, 13, 9, 3, 0, 0, [1, 1, 1, 1, 0, 0]>, <51, 5, 14, 9, 3, 0, 0, [1, 1, 1, 1, 0, 0]>, <52, 11, 20, 9, 3, 0, 0, [1, 1, 1, 1, 0, 0]>, <53, 12, 21, 9, 3, 0, 0, [1, 1, 1, 1, 0, 0]>, <54, 15, 24, 9, 3, 0, 0, [1, 1, 1, 1, 0, 0]>, <55, 16, 25, 9, 3, 0, 0, [1, 1, 1, 1, 0, 0]>, <56, 17, 26, 9, 3, 0, 0, [1, 1, 1, 1, 0, 0]>, <57, 18, 27, 9, 3, 0, 0, [1, 1, 1, 1, 0, 0]>, <58, 19, 28, 9, 3, 0, 0, [1, 1, 1, 1, 0, 0]>, <59, 20, 29, 9, 3, 0, 0, [1, 1, 1, 1, 0, 0]>, <60, 4, 12, 8, 4, 0, 0, [1, 1, 1, 1, 0, 0]>, <61, 5, 13, 8, 4, 0, 0, [1, 1, 1, 1, 0, 0]>, <62, 11, 19, 8, 4, 0, 0, [1, 1, 1, 1, 0, 0]>, <63, 12, 20, 8, 4, 0, 0, [1, 1, 1, 1, 0, 0]>, <64, 16, 24, 8, 4, 0, 0, [1, 1, 1, 1, 0, 0]>, <65, 17, 25, 8, 4, 0, 0, [1, 1, 1, 1, 0, 0]>, <66, 18, 26, 8, 4, 0, 0, [1, 1, 1, 1, 0, 0]>, <67, 19, 27, 8, 4, 0, 0, [1, 1, 1, 1, 0, 0]>, <68, 20, 28, 8, 4, 0, 0, [1, 1, 1, 1, 0, 0]>, <69, 1, 12, 11, 5, 0, 0, [1, 1, 0, 0, 1, 1]>, <70, 2, 13, 11, 5, 0, 0, [1, 1, 0, 0, 1, 1]>, <71, 3, 14, 11, 5, 0, 0, [1, 1, 0, 0, 1, 1]>, <72, 4, 15, 11, 5, 0, 0, [1, 1, 0, 0, 1, 1]>, <73, 5, 16, 11, 5, 0, 0, [1, 1, 0, 0, 1, 1]>, <74, 9, 20, 11, 5, 0, 0, [1, 1, 0, 0, 1, 1]>, <75, 10, 21, 11, 5, 0, 0, [1, 1, 0, 0, 1, 1]>, <76, 11, 22, 11, 5, 0, 0, [1, 1, 0, 0, 1, 1]>, <77, 12, 23, 11, 5, 0, 0, [1, 1, 0, 0, 1, 1]>, <78, 13, 24, 11, 5, 0, 0, [1, 1, 0, 0, 1, 1]>, <79, 14, 25, 11, 5, 0, 0, [1, 1, 0, 0, 1, 1]>, <80, 15, 26, 11, 5, 0, 0, [1, 1, 0, 0, 1, 1]>, <81, 16, 27, 11, 5, 0, 0, [1, 1, 0, 0, 1, 1]>, <82, 17, 28, 11, 5, 0, 0, [1, 1, 0, 0, 1, 1]>, <83, 18, 29, 11, 5, 0, 0, [1, 1, 0, 0, 1, 1]>, <84, 3, 12, 9, 6, 1, 0, [0, 1, 1, 1, 1, 0]>, <85, 4, 13, 9, 6, 1, 0, [0, 1, 1, 1, 1, 0]>, <86, 5, 14, 9, 6, 1, 0, [0, 1, 1, 1, 1, 0]>, <87, 11, 20, 9, 6, 1, 0, [0, 1, 1, 1, 1, 0]>, <88, 12, 21, 9, 6, 1, 0, [0, 1, 1, 1, 1, 0]>, <89, 15, 24, 9, 6, 1, 0, [0, 1, 1, 1, 1, 0]>, <90, 16, 25, 9, 6, 1, 0, [0, 1, 1, 1, 1, 0]>, <91, 17, 26, 9, 6, 1, 0, [0, 1, 1, 1, 1, 0]>, <92, 18, 27, 9, 6, 1, 0, [0, 1, 1, 1, 1, 0]>, <93, 19, 28, 9, 6, 1, 0, [0, 1, 1, 1, 1, 0]>, <94, 20, 29, 9, 6, 1, 0, [0, 1, 1, 1, 1, 0]>, <95, 2, 12, 10, 7, 0, 1, [0, 0, 1, 1, 1, 1]>, <96, 3, 13, 10, 7, 0, 1, [0, 0, 1, 1, 1, 1]>, <97, 4, 14, 10, 7, 0, 1, [0, 0, 1, 1, 1, 1]>, <98, 5, 15, 10, 7, 0, 1, [0, 0, 1, 1, 1, 1]>, <99, 10, 20, 10, 7, 0, 1, [0, 0, 1, 1, 1, 1]>, <100, 11, 21, 10, 7, 0, 1, [0, 0, 1, 1, 1, 1]>, <101, 12, 22, 10, 7, 0, 1, [0, 0, 1, 1, 1, 1]>, <102, 14, 24, 10, 7, 0, 1, [0, 0, 1, 1, 1, 1]>, <103, 15, 25, 10, 7, 0, 1, [0, 0, 1, 1, 1, 1]>, <104, 16, 26, 10, 7, 0, 1, [0, 0, 1, 1, 1, 1]>, <105, 17, 27, 10, 7, 0, 1, [0, 0, 1, 1, 1, 1]>, <106, 18, 28, 10, 7, 0, 1, [0, 0, 1, 1, 1, 1]>, <107, 19, 29, 10, 7, 0, 1, [0, 0, 1, 1, 1, 1]>, <108, 1, 12, 11, 8, 0, 0, [1, 1, 0, 0, 1, 1]>, <109, 2, 13, 11, 8, 0, 0, [1, 1, 0, 0, 1, 1]>, <110, 3, 14, 11, 8, 0, 0, [1, 1, 0, 0, 1, 1]>, <111, 4, 15, 11, 8, 0, 0, [1, 1, 0, 0, 1, 1]>, <112, 5, 16, 11, 8, 0, 0, [1, 1, 0, 0, 1, 1]>, <113, 9, 20, 11, 8, 0, 0, [1, 1, 0, 0, 1, 1]>, <114, 10, 21, 11, 8, 0, 0, [1, 1, 0, 0, 1, 1]>, <115, 11, 22, 11, 8, 0, 0, [1, 1, 0, 0, 1, 1]>, <116, 12, 23, 11, 8, 0, 0, [1, 1, 0, 0, 1, 1]>, <117, 13, 24, 11, 8, 0, 0, [1, 1, 0, 0, 1, 1]>, <118, 14, 25, 11, 8, 0, 0, [1, 1, 0, 0, 1, 1]>, <119, 15, 26, 11, 8, 0, 0, [1, 1, 0, 0, 1, 1]>, <120, 16, 27, 11, 8, 0, 0, [1, 1, 0, 0, 1, 1]>, <121, 17, 28, 11, 8, 0, 0, [1, 1, 0, 0, 1, 1]>, <122, 18, 29, 11, 8, 0, 0, [1, 1, 0, 0, 1, 1]>, <123, 3, 12, 9, 9, 0, 1, [1, 1, 1, 1, 0, 0]>, <124, 4, 13, 9, 9, 0, 1, [1, 1, 1, 1, 0, 0]>, <125, 5, 14, 9, 9, 0, 1, [1, 1, 1, 1, 0, 0]>, <126, 11, 20, 9, 9, 0, 1, [1, 1, 1, 1, 0, 0]>, <127, 12, 21, 9, 9, 0, 1, [1, 1, 1, 1, 0, 0]>, <128, 15, 24, 9, 9, 0, 1, [1, 1, 1, 1, 0, 0]>, <129, 16, 25, 9, 9, 0, 1, [1, 1, 1, 1, 0, 0]>, <130, 17, 26, 9, 9, 0, 1, [1, 1, 1, 1, 0, 0]>, <131, 18, 27, 9, 9, 0, 1, [1, 1, 1, 1, 0, 0]>, <132, 19, 28, 9, 9, 0, 1, [1, 1, 1, 1, 0, 0]>, <133, 20, 29, 9, 9, 0, 1, [1, 1, 1, 1, 0, 0]>, <134, 4, 12, 8, 10, 1, 0, [1, 1, 1, 0, 0, 1]>, <135, 5, 13, 8, 10, 1, 0, [1, 1, 1, 0, 0, 1]>, <136, 11, 19, 8, 10, 1, 0, [1, 1, 1, 0, 0, 1]>, <137, 12, 20, 8, 10, 1, 0, [1, 1, 1, 0, 0, 1]>, <138, 16, 24, 8, 10, 1, 0, [1, 1, 1, 0, 0, 1]>, <139, 17, 25, 8, 10, 1, 0, [1, 1, 1, 0, 0, 1]>, <140, 18, 26, 8, 10, 1, 0, [1, 1, 1, 0, 0, 1]>, <141, 19, 27, 8, 10, 1, 0, [1, 1, 1, 0, 0, 1]>, <142, 20, 28, 8, 10, 1, 0, [1, 1, 1, 0, 0, 1]>, <143, 4, 12, 8, 11, 0, 0, [0, 1, 1, 1, 1, 0]>, <144, 5, 13, 8, 11, 0, 0, [0, 1, 1, 1, 1, 0]>, <145, 11, 19, 8, 11, 0, 0, [0, 1, 1, 1, 1, 0]>, <146, 12, 20, 8, 11, 0, 0, [0, 1, 1, 1, 1, 0]>, <147, 16, 24, 8, 11, 0, 0, [0, 1, 1, 1, 1, 0]>, <148, 17, 25, 8, 11, 0, 0, [0, 1, 1, 1, 1, 0]>, <149, 18, 26, 8, 11, 0, 0, [0, 1, 1, 1, 1, 0]>, <150, 19, 27, 8, 11, 0, 0, [0, 1, 1, 1, 1, 0]>, <151, 20, 28, 8, 11, 0, 0, [0, 1, 1, 1, 1, 0]>, <152, 4, 12, 8, 12, 0, 0, [0, 0, 1, 1, 1, 1]>, <153, 5, 13, 8, 12, 0, 0, [0, 0, 1, 1, 1, 1]>, <154, 11, 19, 8, 12, 0, 0, [0, 0, 1, 1, 1, 1]>, <155, 12, 20, 8, 12, 0, 0, [0, 0, 1, 1, 1, 1]>, <156, 16, 24, 8, 12, 0, 0, [0, 0, 1, 1, 1, 1]>, <157, 17, 25, 8, 12, 0, 0, [0, 0, 1, 1, 1, 1]>, <158, 18, 26, 8, 12, 0, 0, [0, 0, 1, 1, 1, 1]>, <159, 19, 27, 8, 12, 0, 0, [0, 0, 1, 1, 1, 1]>, <160, 20, 28, 8, 12, 0, 0, [0, 0, 1, 1, 1, 1]>, <161, 1, 12, 11, 13, 0, 0, [0, 1, 1, 1, 1, 0]>, <162, 2, 13, 11, 13, 0, 0, [0, 1, 1, 1, 1, 0]>, <163, 3, 14, 11, 13, 0, 0, [0, 1, 1, 1, 1, 0]>, <164, 4, 15, 11, 13, 0, 0, [0, 1, 1, 1, 1, 0]>, <165, 5, 16, 11, 13, 0, 0, [0, 1, 1, 1, 1, 0]>, <166, 9, 20, 11, 13, 0, 0, [0, 1, 1, 1, 1, 0]>, <167, 10, 21, 11, 13, 0, 0, [0, 1, 1, 1, 1, 0]>, <168, 11, 22, 11, 13, 0, 0, [0, 1, 1, 1, 1, 0]>, <169, 12, 23, 11, 13, 0, 0, [0, 1, 1, 1, 1, 0]>, <170, 13, 24, 11, 13, 0, 0, [0, 1, 1, 1, 1, 0]>, <171, 14, 25, 11, 13, 0, 0, [0, 1, 1, 1, 1, 0]>, <172, 15, 26, 11, 13, 0, 0, [0, 1, 1, 1, 1, 0]>, <173, 16, 27, 11, 13, 0, 0, [0, 1, 1, 1, 1, 0]>, <174, 17, 28, 11, 13, 0, 0, [0, 1, 1, 1, 1, 0]>, <175, 18, 29, 11, 13, 0, 0, [0, 1, 1, 1, 1, 0]>, <176, 2, 12, 10, 14, 0, 0, [1, 1, 1, 1, 0, 0]>, <177, 3, 13, 10, 14, 0, 0, [1, 1, 1, 1, 0, 0]>, <178, 4, 14, 10, 14, 0, 0, [1, 1, 1, 1, 0, 0]>, <179, 5, 15, 10, 14, 0, 0, [1, 1, 1, 1, 0, 0]>, <180, 10, 20, 10, 14, 0, 0, [1, 1, 1, 1, 0, 0]>, <181, 11, 21, 10, 14, 0, 0, [1, 1, 1, 1, 0, 0]>, <182, 12, 22, 10, 14, 0, 0, [1, 1, 1, 1, 0, 0]>, <183, 14, 24, 10, 14, 0, 0, [1, 1, 1, 1, 0, 0]>, <184, 15, 25, 10, 14, 0, 0, [1, 1, 1, 1, 0, 0]>, <185, 16, 26, 10, 14, 0, 0, [1, 1, 1, 1, 0, 0]>, <186, 17, 27, 10, 14, 0, 0, [1, 1, 1, 1, 0, 0]>, <187, 18, 28, 10, 14, 0, 0, [1, 1, 1, 1, 0, 0]>, <188, 19, 29, 10, 14, 0, 0, [1, 1, 1, 1, 0, 0]>};
